# Solution for model problem
# Objective value = 7
CLIENT_PE13_0 1
CLIENT_PE7_1 1
CLIENT_PE11_3 1
src_1 1
iir_0 1
idct_4 1
sink_3 1
CLIENT_PE0_0 0
CLIENT_PE2_0 0
CLIENT_PE3_0 0
CLIENT_PE4_0 0
CLIENT_PE6_0 0
CLIENT_PE7_0 0
CLIENT_PE14_0 0
CLIENT_PE0_1 0
CLIENT_PE2_1 0
CLIENT_PE3_1 0
CLIENT_PE4_1 0
CLIENT_PE6_1 0
CLIENT_PE13_1 0
CLIENT_PE14_1 0
CLIENT_PE0_3 0
CLIENT_PE1_3 0
CLIENT_PE2_3 0
CLIENT_PE3_3 0
CLIENT_PE4_3 0
CLIENT_PE5_3 0
CLIENT_PE6_3 0
CLIENT_PE7_3 0
CLIENT_PE8_3 0
CLIENT_PE9_3 0
CLIENT_PE10_3 0
CLIENT_PE12_3 0
CLIENT_PE13_3 0
CLIENT_PE14_3 0
CLIENT_PE15_3 0
CLIENT_PE16_3 0
src_0 0
src_2 0
src_3 0
src_4 0
iir_1 0
iir_2 0
iir_3 0
iir_4 0
idct_0 0
idct_1 0
idct_2 0
idct_3 0
sink_0 0
sink_1 0
sink_2 0
sink_4 0
